Problem:    habitat_for_humanity
Rows:       5
Columns:    12 (12 integer, 12 binary)
Non-zeros:  41
Status:     INTEGER OPTIMAL
Objective:  Z = 508 (MAXimum)

   No.   Row name        Activity     Lower bound   Upper bound
------ ------------    ------------- ------------- -------------
     1 Z                         508                             
     2 construccMaxima
                                   6                         730 
     3 voluntariMaximo
                                  30                          30 
     4 si2EntoncesNo11
                                   0                           1 
     5 si4o5Entonces7
                                   0                          -0 

   No. Column name       Activity     Lower bound   Upper bound
------ ------------    ------------- ------------- -------------
     1 X[1]         *              0             0             1 
     2 X[2]         *              0             0             1 
     3 X[3]         *              0             0             1 
     4 X[4]         *              0             0             1 
     5 X[5]         *              1             0             1 
     6 X[6]         *              1             0             1 
     7 X[7]         *              1             0             1 
     8 X[8]         *              0             0             1 
     9 X[9]         *              1             0             1 
    10 X[10]        *              1             0             1 
    11 X[11]        *              0             0             1 
    12 X[12]        *              1             0             1 

Integer feasibility conditions:

KKT.PE: max.abs.err = 0.00e+00 on row 0
        max.rel.err = 0.00e+00 on row 0
        High quality

KKT.PB: max.abs.err = 0.00e+00 on row 0
        max.rel.err = 0.00e+00 on row 0
        High quality

End of output
